(set-info :smt-lib-version 2.6)
(set-logic UF)
(set-info :source |Benchmarks from the paper: "Extending Sledgehammer with SMT Solvers" by Jasmin Blanchette, Sascha Bohme, and Lawrence C. Paulson, CADE 2011.  Translated to SMT2 by Andrew Reynolds and Morgan Deters.|)
(set-info :category "industrial")
(set-info :status unknown)
(declare-sort S1 0)
(declare-sort S2 0)
(declare-sort S3 0)
(declare-sort S4 0)
(declare-sort S5 0)
(declare-sort S6 0)
(declare-sort S7 0)
(declare-sort S8 0)
(declare-sort S9 0)
(declare-sort S10 0)
(declare-sort S11 0)
(declare-sort S12 0)
(declare-sort S13 0)
(declare-sort S14 0)
(declare-sort S15 0)
(declare-sort S16 0)
(declare-sort S17 0)
(declare-sort S18 0)
(declare-sort S19 0)
(declare-sort S20 0)
(declare-sort S21 0)
(declare-sort S22 0)
(declare-sort S23 0)
(declare-sort S24 0)
(declare-fun f1 () S1)
(declare-fun f2 () S1)
(declare-fun f3 (S3 S2) S2)
(declare-fun f4 () S3)
(declare-fun f5 (S4 S5) S2)
(declare-fun f6 (S6 S2) S4)
(declare-fun f7 (S7 S2) S6)
(declare-fun f8 () S7)
(declare-fun f9 () S4)
(declare-fun f10 () S5)
(declare-fun f11 () S5)
(declare-fun f12 () S3)
(declare-fun f13 () S6)
(declare-fun f14 () S5)
(declare-fun f15 (S8 S5) S3)
(declare-fun f16 () S8)
(declare-fun f17 (S9 S5) S8)
(declare-fun f18 () S9)
(declare-fun f19 (S10 S2) S8)
(declare-fun f20 () S10)
(declare-fun f21 (S11 S2) S1)
(declare-fun f22 (S12 S11) S11)
(declare-fun f23 (S11) S12)
(declare-fun f24 () S3)
(declare-fun f25 () S11)
(declare-fun f26 (S13 S14) S2)
(declare-fun f27 (S15 S2) S13)
(declare-fun f28 (S16 S17) S15)
(declare-fun f29 () S16)
(declare-fun f30 () S17)
(declare-fun f31 () S2)
(declare-fun f32 (S18 S5) S5)
(declare-fun f33 () S18)
(declare-fun f34 () S2)
(declare-fun f35 (S19 S14) S14)
(declare-fun f36 (S20 S3) S19)
(declare-fun f37 () S20)
(declare-fun f38 () S14)
(declare-fun f39 (S17 S2) S3)
(declare-fun f40 (S21 S5) S1)
(declare-fun f41 (S22 S2) S5)
(declare-fun f42 () S22)
(declare-fun f43 () S3)
(declare-fun f44 (S11 S14) S1)
(declare-fun f45 () S7)
(declare-fun f46 (S23 S5) S6)
(declare-fun f47 () S23)
(declare-fun f48 (S2) S11)
(declare-fun f49 (S24 S5) S18)
(declare-fun f50 () S24)
(declare-fun f51 () S22)
(assert (not (= f1 f2)))
(assert (forall ((?v0 S2)) (= (f3 f4 ?v0) (f5 (f6 (f7 f8 ?v0) (f5 f9 f10)) f11))))
(assert (forall ((?v0 S2)) (= (f3 f12 ?v0) (f5 (f6 f13 ?v0) f14))))
(assert (forall ((?v0 S5) (?v1 S2)) (= (f3 (f15 f16 ?v0) ?v1) (f5 (f6 f13 ?v1) ?v0))))
(assert (forall ((?v0 S5) (?v1 S5) (?v2 S2)) (= (f3 (f15 (f17 f18 ?v0) ?v1) ?v2) (f5 (f6 (f7 f8 ?v2) (f5 f9 ?v0)) ?v1))))
(assert (forall ((?v0 S2) (?v1 S5) (?v2 S2)) (= (f3 (f15 (f19 f20 ?v0) ?v1) ?v2) (f5 (f6 (f7 f8 ?v2) ?v0) ?v1))))
(assert (forall ((?v0 S11) (?v1 S11) (?v2 S2)) (= (= (f21 (f22 (f23 ?v0) ?v1) ?v2) f1) (and (= (f21 ?v0 ?v2) f1) (= (f21 ?v1 ?v2) f1)))))
(assert (forall ((?v0 S2)) (= (f3 f24 ?v0) ?v0)))
(assert (not (= (f21 f25 (f26 (f27 (f28 f29 f30) (f5 (f6 (f7 f8 (f5 (f6 (f7 f8 f31) (f5 f9 (f32 f33 f10))) (f32 f33 f11))) (f5 (f6 (f7 f8 f34) (f5 f9 f10)) f11)) f14)) (f35 (f36 f37 f4) f38))) f1)))
(assert (= (f21 f25 (f26 (f27 (f28 f29 f30) (f5 (f6 (f7 f8 f31) f34) f14)) f38)) f1))
(assert (forall ((?v0 S5) (?v1 S5)) (= (f21 f25 (f26 (f27 (f28 f29 f30) (f5 (f6 (f7 f8 (f5 (f6 (f7 f8 f31) (f5 f9 (f32 f33 ?v0))) (f32 f33 ?v1))) (f5 (f6 (f7 f8 f34) (f5 f9 ?v0)) ?v1)) f14)) (f35 (f36 f37 (f15 (f17 f18 ?v0) ?v1)) f38))) f1)))
(assert (= (f21 f25 f34) f1))
(assert (forall ((?v0 S5) (?v1 S5)) (= (f21 f25 (f5 (f6 (f7 f8 f34) (f5 f9 ?v0)) ?v1)) f1)))
(assert (forall ((?v0 S2) (?v1 S14) (?v2 S2) (?v3 S5)) (let ((?v_0 (f28 f29 f30))) (= (f5 (f6 (f7 f8 (f26 (f27 ?v_0 ?v0) ?v1)) ?v2) ?v3) (f26 (f27 ?v_0 (f5 (f6 (f7 f8 ?v0) ?v2) ?v3)) (f35 (f36 f37 (f15 (f19 f20 ?v2) ?v3)) ?v1))))))
(assert (forall ((?v0 S5) (?v1 S14) (?v2 S5) (?v3 S14)) (let ((?v_0 (f28 f29 f30))) (= (= (f26 (f27 ?v_0 (f5 f9 ?v0)) ?v1) (f26 (f27 ?v_0 (f5 f9 ?v2)) ?v3)) (and (= ?v0 ?v2) (= ?v1 ?v3))))))
(assert (forall ((?v0 S5) (?v1 S2)) (= (f5 (f6 (f7 f8 (f5 f9 ?v0)) ?v1) ?v0) ?v1)))
(assert (forall ((?v0 S2) (?v1 S2) (?v2 S2) (?v3 S5)) (= (f5 (f6 (f7 f8 (f3 (f39 f30 ?v0) ?v1)) ?v2) ?v3) (f3 (f39 f30 (f5 (f6 (f7 f8 ?v0) ?v2) ?v3)) (f5 (f6 (f7 f8 ?v1) ?v2) ?v3)))))
(assert (forall ((?v0 S5) (?v1 S2) (?v2 S2)) (not (= (f5 f9 ?v0) (f3 (f39 f30 ?v1) ?v2)))))
(assert (forall ((?v0 S2) (?v1 S2) (?v2 S5)) (not (= (f3 (f39 f30 ?v0) ?v1) (f5 f9 ?v2)))))
(assert (forall ((?v0 S2) (?v1 S14) (?v2 S2)) (let ((?v_0 (f28 f29 f30))) (= (= (f26 (f27 ?v_0 ?v0) ?v1) (f26 (f27 ?v_0 ?v2) ?v1)) (= ?v0 ?v2)))))
(assert (forall ((?v0 S5)) (not (= f14 (f32 f33 ?v0)))))
(assert (forall ((?v0 S5)) (not (= f14 (f32 f33 ?v0)))))
(assert (forall ((?v0 S5)) (not (= (f32 f33 ?v0) f14))))
(assert (forall ((?v0 S5)) (not (= (f32 f33 ?v0) f14))))
(assert (forall ((?v0 S5) (?v1 S5)) (=> (= (f32 f33 ?v0) (f32 f33 ?v1)) (= ?v0 ?v1))))
(assert (forall ((?v0 S5) (?v1 S5)) (= (= (f32 f33 ?v0) (f32 f33 ?v1)) (= ?v0 ?v1))))
(assert (forall ((?v0 S5)) (not (= (f32 f33 ?v0) ?v0))))
(assert (forall ((?v0 S5)) (not (= ?v0 (f32 f33 ?v0)))))
(assert (forall ((?v0 S2) (?v1 S2) (?v2 S2) (?v3 S2)) (= (= (f3 (f39 f30 ?v0) ?v1) (f3 (f39 f30 ?v2) ?v3)) (and (= ?v0 ?v2) (= ?v1 ?v3)))))
(assert (forall ((?v0 S5) (?v1 S5)) (= (= (f5 f9 ?v0) (f5 f9 ?v1)) (= ?v0 ?v1))))
(assert (forall ((?v0 S14)) (= (f35 (f36 f37 f24) ?v0) ?v0)))
(assert (forall ((?v0 S5)) (=> (= (f32 f33 ?v0) f14) false)))
(assert (forall ((?v0 S5)) (=> (= f14 (f32 f33 ?v0)) false)))
(assert (forall ((?v0 S5)) (=> (=> (= ?v0 f14) false) (=> (forall ((?v1 S5)) (=> (= ?v0 (f32 f33 ?v1)) false)) false))))
(assert (forall ((?v0 S21) (?v1 S5)) (=> (= (f40 ?v0 ?v1) f1) (=> (forall ((?v2 S5)) (=> (= (f40 ?v0 (f32 f33 ?v2)) f1) (= (f40 ?v0 ?v2) f1))) (= (f40 ?v0 f14) f1)))))
(assert (forall ((?v0 S21) (?v1 S5)) (=> (= (f40 ?v0 f14) f1) (=> (forall ((?v2 S5)) (=> (= (f40 ?v0 ?v2) f1) (= (f40 ?v0 (f32 f33 ?v2)) f1))) (= (f40 ?v0 ?v1) f1)))))
(assert (forall ((?v0 S5)) (=> (not (= ?v0 f14)) (exists ((?v1 S5)) (= ?v0 (f32 f33 ?v1))))))
(assert (forall ((?v0 S2) (?v1 S14) (?v2 S5)) (let ((?v_0 (f28 f29 f30))) (= (f5 (f6 f13 (f26 (f27 ?v_0 ?v0) ?v1)) ?v2) (f26 (f27 ?v_0 (f5 (f6 f13 ?v0) ?v2)) (f35 (f36 f37 (f15 f16 ?v2)) ?v1))))))
(assert (forall ((?v0 S5)) (= (f41 f42 (f5 f9 ?v0)) f14)))
(assert (forall ((?v0 S2) (?v1 S2) (?v2 S14)) (let ((?v_0 (f28 f29 f30))) (=> (= (f21 f25 (f26 (f27 ?v_0 (f5 (f6 (f7 f8 ?v0) ?v1) f14)) ?v2)) f1) (=> (= (f21 f25 ?v1) f1) (= (f21 f25 (f26 (f27 ?v_0 (f3 (f39 f30 (f3 f43 ?v0)) ?v1)) ?v2)) f1))))))
(assert (forall ((?v0 S17) (?v1 S2) (?v2 S14) (?v3 S2)) (let ((?v_0 (f28 f29 ?v0))) (=> (forall ((?v4 S2) (?v5 S2) (?v6 S2)) (let ((?v_1 (f39 ?v0 ?v6))) (= (f3 (f39 ?v0 (f3 ?v_1 ?v4)) ?v5) (f3 (f39 ?v0 (f3 ?v_1 ?v5)) ?v4)))) (= (f3 (f39 ?v0 (f26 (f27 ?v_0 ?v1) ?v2)) ?v3) (f26 (f27 ?v_0 (f3 (f39 ?v0 ?v1) ?v3)) ?v2))))))
(assert (forall ((?v0 S14) (?v1 S5)) (=> (= (f44 f25 ?v0) f1) (= (f21 f25 (f26 (f27 (f28 f29 f30) (f5 f9 ?v1)) ?v0)) f1))))
(assert (forall ((?v0 S2) (?v1 S2)) (= (f5 (f6 (f7 f45 ?v0) ?v1) f14) (f5 (f6 (f7 f8 ?v0) ?v1) f14))))
(assert (forall ((?v0 S2)) (=> (= (f21 f25 ?v0) f1) (= (f21 f25 (f3 f43 ?v0)) f1))))
(assert (forall ((?v0 S2) (?v1 S5)) (=> (= (f21 f25 ?v0) f1) (= (f21 f25 (f5 (f6 f13 ?v0) ?v1)) f1))))
(assert (forall ((?v0 S2) (?v1 S2)) (= (= (f3 f43 ?v0) (f3 f43 ?v1)) (= ?v0 ?v1))))
(assert (forall ((?v0 S11) (?v1 S11) (?v2 S14)) (= (= (f44 (f22 (f23 ?v0) ?v1) ?v2) f1) (and (= (f44 ?v0 ?v2) f1) (= (f44 ?v1 ?v2) f1)))))
(assert (forall ((?v0 S2) (?v1 S2) (?v2 S2)) (not (= (f3 f43 ?v0) (f3 (f39 f30 ?v1) ?v2)))))
(assert (forall ((?v0 S2) (?v1 S2) (?v2 S2)) (not (= (f3 (f39 f30 ?v0) ?v1) (f3 f43 ?v2)))))
(assert (forall ((?v0 S2) (?v1 S5)) (not (= (f3 f43 ?v0) (f5 f9 ?v1)))))
(assert (forall ((?v0 S5) (?v1 S2)) (not (= (f5 f9 ?v0) (f3 f43 ?v1)))))
(assert (forall ((?v0 S2) (?v1 S2) (?v2 S5)) (= (f5 (f6 f13 (f3 (f39 f30 ?v0) ?v1)) ?v2) (f3 (f39 f30 (f5 (f6 f13 ?v0) ?v2)) (f5 (f6 f13 ?v1) ?v2)))))
(assert (forall ((?v0 S2) (?v1 S5) (?v2 S2)) (= (f5 (f6 (f7 f8 (f5 (f6 f13 ?v0) ?v1)) ?v2) ?v1) ?v0)))
(assert (forall ((?v0 S2) (?v1 S14) (?v2 S2) (?v3 S14)) (let ((?v_0 (f28 f29 f30))) (= (= (f26 (f27 ?v_0 (f3 f43 ?v0)) ?v1) (f26 (f27 ?v_0 (f3 f43 ?v2)) ?v3)) (and (= ?v0 ?v2) (= ?v1 ?v3))))))
(assert (forall ((?v0 S2) (?v1 S2) (?v2 S2) (?v3 S5)) (= (f5 (f6 (f7 f45 (f3 (f39 f30 ?v0) ?v1)) ?v2) ?v3) (f3 (f39 f30 (f5 (f6 (f7 f45 ?v0) ?v2) ?v3)) (f5 (f6 (f7 f45 ?v1) ?v2) ?v3)))))
(assert (forall ((?v0 S14)) (=> (= (f44 f25 ?v0) f1) (= (f44 f25 (f35 (f36 f37 f12) ?v0)) f1))))
(assert (forall ((?v0 S2) (?v1 S2) (?v2 S5) (?v3 S14)) (not (= (f3 (f39 f30 (f3 f43 ?v0)) ?v1) (f26 (f27 (f28 f29 f30) (f5 f9 ?v2)) ?v3)))))
(assert (forall ((?v0 S5) (?v1 S14) (?v2 S2) (?v3 S14)) (let ((?v_0 (f28 f29 f30))) (not (= (f26 (f27 ?v_0 (f5 f9 ?v0)) ?v1) (f26 (f27 ?v_0 (f3 f43 ?v2)) ?v3))))))
(assert (forall ((?v0 S2)) (= (= (f21 f25 ?v0) f1) (or (exists ((?v1 S14) (?v2 S5)) (and (= ?v0 (f26 (f27 (f28 f29 f30) (f5 f9 ?v2)) ?v1)) (= (f44 f25 ?v1) f1))) (or (exists ((?v1 S2)) (and (= ?v0 (f3 f43 ?v1)) (= (f21 f25 ?v1) f1))) (exists ((?v1 S2) (?v2 S2) (?v3 S14)) (let ((?v_0 (f28 f29 f30))) (and (= ?v0 (f26 (f27 ?v_0 (f3 (f39 f30 (f3 f43 ?v1)) ?v2)) ?v3)) (and (= (f21 f25 (f26 (f27 ?v_0 (f5 (f6 (f7 f8 ?v1) ?v2) f14)) ?v3)) f1) (= (f21 f25 ?v2) f1))))))))))
(assert (forall ((?v0 S2) (?v1 S2) (?v2 S5)) (= (f5 (f6 (f7 f45 ?v0) ?v1) ?v2) (f5 (f6 (f7 f8 ?v0) (f5 (f6 (f46 f47 ?v2) ?v1) f14)) ?v2))))
(assert (forall ((?v0 S2) (?v1 S2)) (= (f21 (f48 (f3 (f39 f30 (f3 f43 ?v0)) ?v1)) (f5 (f6 (f7 f8 ?v0) ?v1) f14)) f1)))
(assert (forall ((?v0 S2)) (= (f41 f42 (f3 f43 ?v0)) (f32 (f49 f50 (f41 f42 ?v0)) (f32 f33 f14)))))
(assert (forall ((?v0 S2) (?v1 S2)) (= (f41 f42 (f3 (f39 f30 ?v0) ?v1)) (f32 (f49 f50 (f32 (f49 f50 (f41 f42 ?v0)) (f41 f42 ?v1))) (f32 f33 f14)))))
(assert (forall ((?v0 S2)) (=> (forall ((?v1 S5)) (=> (= ?v0 (f5 f9 ?v1)) false)) (=> (forall ((?v1 S2) (?v2 S2)) (=> (= ?v0 (f3 (f39 f30 ?v1) ?v2)) false)) (=> (forall ((?v1 S2)) (=> (= ?v0 (f3 f43 ?v1)) false)) false)))))
(assert (forall ((?v0 S2)) (exists ((?v1 S14) (?v2 S2)) (and (= ?v0 (f26 (f27 (f28 f29 f30) ?v2) ?v1)) (or (exists ((?v3 S5)) (= ?v2 (f5 f9 ?v3))) (exists ((?v3 S2)) (= ?v2 (f3 f43 ?v3))))))))
(assert (forall ((?v0 S5) (?v1 S2) (?v2 S5)) (= (f5 (f6 (f46 f47 (f32 f33 ?v0)) ?v1) ?v2) (f5 (f6 f13 (f5 (f6 (f46 f47 ?v0) ?v1) ?v2)) ?v2))))
(assert (forall ((?v0 S5)) (= (f41 f51 (f5 f9 ?v0)) f14)))
(assert (forall ((?v0 S2) (?v1 S2) (?v2 S2)) (let ((?v_0 (f39 f30 ?v2))) (=> (= (f21 (f48 ?v0) ?v1) f1) (= (f21 (f48 (f3 ?v_0 ?v0)) (f3 ?v_0 ?v1)) f1)))))
(assert (forall ((?v0 S2) (?v1 S2) (?v2 S2)) (=> (= (f21 (f48 ?v0) ?v1) f1) (= (f21 (f48 (f3 (f39 f30 ?v0) ?v2)) (f3 (f39 f30 ?v1) ?v2)) f1))))
(assert (forall ((?v0 S5) (?v1 S2)) (=> (= (f21 (f48 (f5 f9 ?v0)) ?v1) f1) false)))
(assert (forall ((?v0 S2) (?v1 S2)) (=> (= (f21 (f48 ?v0) ?v1) f1) (= (f21 (f48 (f3 f43 ?v0)) (f3 f43 ?v1)) f1))))
(assert (forall ((?v0 S5) (?v1 S5) (?v2 S5)) (= (= (f32 (f49 f50 ?v0) ?v1) (f32 (f49 f50 ?v2) ?v1)) (= ?v0 ?v2))))
(check-sat)
(exit)
